Problem:    
Rows:       256
Columns:    89 (72 integer, 72 binary)
Non-zeros:  960
Status:     INTEGER OPTIMAL
Objective:  value = 5.188681 (MINimum)

   No.   Row name        Activity     Lower bound   Upper bound
------ ------------    ------------- ------------- -------------
     1 r.5                   1005.19             0               
     2 r.6                  -997.798      -999.426               
     3 r.7                   5.18868             0               
     4 r.8                   4.08471      -996.832               
     5 r.9                   1005.19             0               
     6 r.10                 -998.372      -999.371               
     7 r.11                  5.18868             0               
     8 r.12                  3.12001      -997.263               
     9 r.13                  1005.19             0               
    10 r.14                  -996.88      -999.082               
    11 r.15                  5.18868             0               
    12 r.16                  3.12001      -996.365               
    13 r.17                  1005.19             0               
    14 r.18                 -999.462      -999.513               
    15 r.19                  5.18868             0               
    16 r.20                  2.20153      -997.323               
    17 r.21                  1005.19             0               
    18 r.22                 -999.001      -999.539               
    19 r.23                  5.18868             0               
    20 r.24                  3.12001      -997.683               
    21 r.25                  1005.19             0               
    22 r.26                 -999.949      -999.949               
    23 r.27                  5.18868             0               
    24 r.28                 -998.272      -998.272               
    25 r.29                  1005.19             0               
    26 r.30                 -994.811      -998.896               
    27 r.31                  5.18868             0               
    28 r.32                  5.18868      -994.054               
    29 r.33                  1005.19             0               
    30 r.34                 -995.915      -999.035               
    31 r.35                  5.18868             0               
    32 r.36                  5.18868      -997.415               
    33 r.37                        1             1             = 
    34 r.38                        1             1             = 
    35 r.39                        1             1             = 
    36 r.40                        1             1             = 
    37 r.41                        1             1             = 
    38 r.42                        1             1             = 
    39 r.43                        1             1             = 
    40 r.44                        1             1             = 
    41 r.45                        2             2               
    42 r.46                       -2         -1001               
    43 r.47                -0.573561      -999.371               
    44 r.48                     1000             2               
    45 r.49                    -1000         -1001               
    46 r.50                  1999.04      -997.263               
    47 r.51                        2             2               
    48 r.52                       -2         -1001               
    49 r.53                 -999.082      -999.082               
    50 r.54                     1000             2               
    51 r.55                    -1000         -1001               
    52 r.56                  1999.04      -996.365               
    53 r.57                        2             2               
    54 r.58                       -2         -1001               
    55 r.59                 -1.66351      -999.513               
    56 r.60                     1000             2               
    57 r.61                    -1000         -1001               
    58 r.62                  1998.12      -997.323               
    59 r.63                        2             2               
    60 r.64                       -2         -1001               
    61 r.65                 -1.20241      -999.539               
    62 r.66                     1000             2               
    63 r.67                    -1000         -1001               
    64 r.68                  1999.04      -997.683               
    65 r.69                 -997.849      -999.426               
    66 r.70                  4.03381      -996.832               
    67 r.71                 0.473645      -999.426               
    68 r.72                  1002.36      -996.832               
    69 r.73                 -997.013      -998.896               
    70 r.74                  2.98715      -994.054               
    71 r.75                 -998.896      -998.896               
    72 r.76                  1.10397      -994.054               
    73 r.77                        2             2               
    74 r.78                       -2         -1001               
    75 r.79                 -998.117      -999.035               
    76 r.80                     1000             2               
    77 r.81                    -1000         -1001               
    78 r.82                   2001.1      -997.415               
    79 r.83                        2             2               
    80 r.84                       -2         -1001               
    81 r.85                 0.573561      0.573561               
    82 r.86                     1000             2               
    83 r.87                    -1000         -1001               
    84 r.88                  2000.96       3.16847               
    85 r.89                        2             2               
    86 r.90                       -2         -1001               
    87 r.91                 -998.508      -999.082               
    88 r.92                     1000             2               
    89 r.93                    -1000         -1001               
    90 r.94                     2000      -996.365               
    91 r.95                        2             2               
    92 r.96                       -2         -1001               
    93 r.97                 -1.08995      -999.513               
    94 r.98                     1000             2               
    95 r.99                    -1000         -1001               
    96 r.100                 1999.08      -997.323               
    97 r.101                       2             2               
    98 r.102                      -2         -1001               
    99 r.103               -0.628845      -999.539               
   100 r.104                    1000             2               
   101 r.105                   -1000         -1001               
   102 r.106                    2000      -997.683               
   103 r.107                -998.423      -999.371               
   104 r.108                 3.06911      -997.263               
   105 r.109               -0.099916      -999.371               
   106 r.110                 1001.39      -997.263               
   107 r.111                       2             2               
   108 r.112                      -2         -1001               
   109 r.113                -996.439      -998.896               
   110 r.114                    1000             2               
   111 r.115                   -1000         -1001               
   112 r.116                 2002.07      -994.054               
   113 r.117                -997.543      -999.035               
   114 r.118                 3.56071      -997.415               
   115 r.119                -999.035      -999.035               
   116 r.120                 2.06867      -997.415               
   117 r.121                       2             2               
   118 r.122                      -2         -1001               
   119 r.123                 999.082      0.573561               
   120 r.124                    1000             2               
   121 r.125                   -1000         -1001               
   122 r.126                 2000.96       3.16847               
   123 r.127                       2             2               
   124 r.128                      -2         -1001               
   125 r.129                 998.508      0.628844               
   126 r.130                    1000             2               
   127 r.131                   -1000         -1001               
   128 r.132                    2000       2.73673               
   129 r.133                -997.418      -999.082               
   130 r.134                 2.58198      -996.365               
   131 r.135                -999.082      -999.082               
   132 r.136                0.918475      -996.365               
   133 r.137                       2             2               
   134 r.138                      -2         -1001               
   135 r.139                -2.12088      -999.539               
   136 r.140                    1000             2               
   137 r.141                   -1000         -1001               
   138 r.142                    2000      -997.683               
   139 r.143                -996.931      -999.082               
   140 r.144                 3.06911      -996.365               
   141 r.145                 1.39212      -999.082               
   142 r.146                 1001.39      -996.365               
   143 r.147                       2             2               
   144 r.148                      -2         -1001               
   145 r.149                -997.931      -998.896               
   146 r.150                    1000             2               
   147 r.151                   -1000         -1001               
   148 r.152                 2002.07      -994.054               
   149 r.153                -999.035      -999.035               
   150 r.154                 2.06867      -997.415               
   151 r.155                -999.035      -999.035               
   152 r.156                 2.06867      -997.415               
   153 r.157                       2             2               
   154 r.158                      -2         -1001               
   155 r.159                 1.66351      0.573561               
   156 r.160                    1000             2               
   157 r.161                   -1000         -1001               
   158 r.162                 2001.88       3.16847               
   159 r.163                       2             2               
   160 r.164                      -2         -1001               
   161 r.165                 1.08994      0.628844               
   162 r.166                    1000             2               
   163 r.167                   -1000         -1001               
   164 r.168                 2000.92       2.73673               
   165 r.169                       2             2               
   166 r.170                      -2         -1001               
   167 r.171                -999.539      -999.539               
   168 r.172                    1000             2               
   169 r.173                   -1000         -1001               
   170 r.174                 2000.92      -997.683               
   171 r.175                -999.513      -999.513               
   172 r.176                 2.15063      -997.323               
   173 r.177                -1.18986      -999.513               
   174 r.178                 1000.47      -997.323               
   175 r.179                       2             2               
   176 r.180                      -2         -1001               
   177 r.181                -995.349      -998.896               
   178 r.182                    1000             2               
   179 r.183                   -1000         -1001               
   180 r.184                 2002.99      -994.054               
   181 r.185                -996.453      -999.035               
   182 r.186                 4.65065      -997.415               
   183 r.187                -998.117      -999.035               
   184 r.188                 2.98715      -997.415               
   185 r.189                       2             2               
   186 r.190                      -2         -1001               
   187 r.191                  1.2024      0.573561               
   188 r.192                    1000             2               
   189 r.193                   -1000         -1001               
   190 r.194                 2000.96       3.16847               
   191 r.195                       2             2               
   192 r.196                      -2         -1001               
   193 r.197                0.628844      0.628844               
   194 r.198                    1000             2               
   195 r.199                   -1000         -1001               
   196 r.200                    2000       2.73673               
   197 r.201                       2             2               
   198 r.202                      -2         -1001               
   199 r.203                 2.12088      0.918475               
   200 r.204                    1000             2               
   201 r.205                   -1000         -1001               
   202 r.206                    2000       3.63535               
   203 r.207                       2             2               
   204 r.208                      -2         -1001               
   205 r.209                 999.539      0.487125               
   206 r.210                    1000             2               
   207 r.211                   -1000         -1001               
   208 r.212                 1999.08       2.67661               
   209 r.213                -999.052      -999.539               
   210 r.214                 3.06911      -997.683               
   211 r.215               -0.728761      -999.539               
   212 r.216                 1001.39      -997.683               
   213 r.217                 -995.81      -998.896               
   214 r.218                 4.18955      -994.054               
   215 r.219                -997.931      -998.896               
   216 r.220                 2.06867      -994.054               
   217 r.221                -996.914      -999.035               
   218 r.222                 4.18955      -997.415               
   219 r.223                -999.035      -999.035               
   220 r.224                 2.06867      -997.415               
   221 r.225                       2             2               
   222 r.226                      -2         -1001               
   223 r.227                 996.439      0.628844               
   224 r.228                    1000             2               
   225 r.229                   -1000         -1001               
   226 r.230                 1997.93       2.73673               
   227 r.231                       2             2               
   228 r.232                      -2         -1001               
   229 r.233                 997.931      0.918475               
   230 r.234                    1000             2               
   231 r.235                   -1000         -1001               
   232 r.236                 1997.93       3.63535               
   233 r.237                       2             2               
   234 r.238                      -2         -1001               
   235 r.239                 995.349      0.487125               
   236 r.240                    1000             2               
   237 r.241                   -1000         -1001               
   238 r.242                 1997.01       2.67661               
   239 r.243                       2             2               
   240 r.244                      -2         -1001               
   241 r.245                -1.10397      -999.035               
   242 r.246                    1000             2               
   243 r.247                   -1000         -1001               
   244 r.248                    2000      -997.415               
   245 r.249                       2             2               
   246 r.250                      -2         -1001               
   247 r.251                 998.117      0.573561               
   248 r.252                    1000             2               
   249 r.253                   -1000         -1001               
   250 r.254                  1998.9       3.16847               
   251 r.255                       2             2               
   252 r.256                      -2         -1001               
   253 r.257                 1.10397       1.10397               
   254 r.258                    1000             2               
   255 r.259                   -1000         -1001               
   256 r.260                    2000       5.94566               

   No. Column name       Activity     Lower bound   Upper bound
------ ------------    ------------- ------------- -------------
     1 tt                    5.18868             0               
     2 s_1_1        *              1             0             1 
     3 t_1_1                 2.98715             0               
     4 s_1_7        *              1             0             1 
     5 s_2_1        *              0             0             1 
     6 t_2_1                 1.10397             0               
     7 s_2_7        *              0             0             1 
     8 s_1_2        *              1             0             1 
     9 t_1_2                 3.56071             0               
    10 s_1_8        *              1             0             1 
    11 s_2_2        *              0             0             1 
    12 t_2_2                 2.06867             0               
    13 s_2_8        *              0             0             1 
    14 s_1_3        *              1             0             1 
    15 t_1_3                 2.06867             0               
    16 s_2_3        *              0             0             1 
    17 t_2_3                 2.06867             0               
    18 s_1_4        *              1             0             1 
    19 t_1_4                 4.65065             0               
    20 s_2_4        *              0             0             1 
    21 t_2_4                 2.98715             0               
    22 s_1_5        *              1             0             1 
    23 t_1_5                 4.18955             0               
    24 s_2_5        *              0             0             1 
    25 t_2_5                 2.06867             0               
    26 s_1_6        *              1             0             1 
    27 t_1_6                 5.13778             0               
    28 s_2_6        *              0             0             1 
    29 t_2_6                 1003.46             0               
    30 t_1_7                       0             0               
    31 t_2_7                       0             0               
    32 t_1_8                 1.10397             0               
    33 t_2_8                       0             0               
    34 r_1_1_2      *              0             0             1 
    35 u_1_1_2      *              0             0             1 
    36 r_2_1_2      *              1             0             1 
    37 u_2_1_2      *              0             0             1 
    38 r_1_1_3      *              0             0             1 
    39 u_1_1_3      *              1             0             1 
    40 r_2_1_3      *              1             0             1 
    41 u_2_1_3      *              0             0             1 
    42 r_1_1_4      *              0             0             1 
    43 u_1_1_4      *              0             0             1 
    44 r_2_1_4      *              1             0             1 
    45 u_2_1_4      *              0             0             1 
    46 r_1_1_5      *              0             0             1 
    47 u_1_1_5      *              0             0             1 
    48 r_2_1_5      *              1             0             1 
    49 u_2_1_5      *              0             0             1 
    50 r_1_1_8      *              0             0             1 
    51 u_1_1_8      *              1             0             1 
    52 r_2_1_8      *              1             0             1 
    53 u_2_1_8      *              0             0             1 
    54 r_1_2_3      *              0             0             1 
    55 u_1_2_3      *              1             0             1 
    56 r_2_2_3      *              1             0             1 
    57 u_2_2_3      *              0             0             1 
    58 r_1_2_4      *              0             0             1 
    59 u_1_2_4      *              0             0             1 
    60 r_2_2_4      *              1             0             1 
    61 u_2_2_4      *              0             0             1 
    62 r_1_2_5      *              0             0             1 
    63 u_1_2_5      *              0             0             1 
    64 r_2_2_5      *              1             0             1 
    65 u_2_2_5      *              0             0             1 
    66 r_1_2_7      *              0             0             1 
    67 u_1_2_7      *              1             0             1 
    68 r_2_2_7      *              1             0             1 
    69 u_2_2_7      *              0             0             1 
    70 r_1_3_5      *              0             0             1 
    71 u_1_3_5      *              0             0             1 
    72 r_2_3_5      *              1             0             1 
    73 u_2_3_5      *              0             0             1 
    74 r_1_3_7      *              0             0             1 
    75 u_1_3_7      *              1             0             1 
    76 r_2_3_7      *              1             0             1 
    77 u_2_3_7      *              0             0             1 
    78 r_1_4_5      *              0             0             1 
    79 u_1_4_5      *              1             0             1 
    80 r_2_4_5      *              1             0             1 
    81 u_2_4_5      *              0             0             1 
    82 r_1_4_7      *              0             0             1 
    83 u_1_4_7      *              1             0             1 
    84 r_2_4_7      *              1             0             1 
    85 u_2_4_7      *              0             0             1 
    86 r_1_7_8      *              0             0             1 
    87 u_1_7_8      *              0             0             1 
    88 r_2_7_8      *              1             0             1 
    89 u_2_7_8      *              0             0             1 

Integer feasibility conditions:

KKT.PE: max.abs.err = 1.14e-13 on row 22
        max.rel.err = 5.67e-17 on row 235
        High quality

KKT.PB: max.abs.err = 2.22e-16 on row 81
        max.rel.err = 1.41e-16 on row 81
        High quality

End of output
